NAME : rnd65_20.tsp
TYPE : TSP
DIMENSION : 20
EDGE_WEIGHT_TYPE : EUC_2D
NODE_COORD_SECTION
0 806 706
1 300 460
2 538 185
3 940 232
4 50 553
5 51 290
6 92 526
7 757 165
8 964 293
9 186 426
10 259 570
11 34 699
12 102 709
13 702 475
14 152 849
15 307 962
16 611 8
17 947 860
18 820 945
19 924 26
